100 8
428 558
371 390
82 429
307 422
253 423
377 253
361 211
169 872
770 72
161 406
756 857
246 341
79 848
661 594
439 795
844 866
195 232
194 843
597 779
532 913
682 206
318 382
341 437
176 967
212 546
179 852
176 817
547 461
974 643
977 828
188 299
273 830
731 119
57 661
765 74
554 923
804 743
806 88
612 756
226 373
194 477
664 596
725 808
99 914
710 117
126 258
757 673
384 340
132 894
242 538
213 249
196 916
393 233
791 790
923 802
473 493
522 575
695 841
184 858
207 430
186 701
207 329
657 100
926 701
604 867
294 165
572 541
183 514
155 305
272 434
52 670
981 619
902 888
534 587
117 148
767 38
774 198
292 823
866 777
53 889
176 413
449 451
488 650
426 639
328 361
91 410
57 672
443 497
402 187
706 424
853 786
67 856
351 526
534 623
271 509
189 903
690 39
529 549
558 636
254 551
